c --- [ banner ] -------------------------------------------------------------
c 
c CaDiCaL Radically Simplified CDCL SAT Solver
c Copyright (c) 2016-2021 A. Biere, M. Fleury, N. Froleyks
c 
c Version 1.5.2 a5f15211db36c3956764e18194dd5bd63bf3b5e6
c g++ (GCC) 9.3.0 -Wall -Wextra -O3 -DNDEBUG
c Fri Oct 21 01:27:37 EDT 2022 Linux gra-login3 3.10.0-1160.66.1.el7.x86_64 x86_64
c 
c --- [ limit ] --------------------------------------------------------------
c 
c setting conflict limit to 200000 conflicts (due to '200000')
c 
c --- [ parsing input ] ------------------------------------------------------
c 
c reading DIMACS file from '33.cubes3827.adj'
c opening file to read '33.cubes3827.adj'
c found 'p cnf 6160 1595478' header
c parsed 1595478 clauses in 20.25 seconds process time
c closing file '33.cubes3827.adj'
c after reading 1457566801 bytes 1390.0 MB
c 
c --- [ options ] ------------------------------------------------------------
c 
c all options are set to their default value
c 
c --- [ solving ] ------------------------------------------------------------
c 
c time measured in process time since initialization
c 
c  seconds    reductions  redundant   irredundant
c          MB     restarts       trail       variables
c            level   conflicts       glue         remaining
c 
c * 20.25 1391  0 0   0    0    0  0% 0 1595422 2302 37%
c { 21.53 1448  0 0   0    0    0  0% 0 1595422 2302 37%
c i 24.50 1519 620 0   6   47   46 33% 13 1595422 2301 37%
c i 25.47 1525 444 0  12   70   67 31% 24 1595422 2300 37%
c i 26.84 1539 321 0  16  115  104 29% 23 1595422 2299 37%
c i 26.93 1540 310 0  16  121  108 29% 23 1595422 2298 37%
c i 27.60 1541 217 0  18  183  154 29% 22 1595422 2297 37%
c i 28.07 1543 186 0  18  223  185 29% 21 1595422 2296 37%
c i 28.28 1544 175 0  18  245  201 29% 22 1595422 2295 37%
c i 28.81 1546 170 0  20  265  216 29% 22 1595422 2278 37%
c i 29.26 1549 164 0  20  280  228 29% 21 1595422 2277 37%
c - 33.92 1528 159 1  24  300  247 29% 22 750441 2276 37%
c i 34.50 1468 156 1  27  320  264 28% 24 750441 2275 37%
c i 35.91 1471 127 1  38  452  360 28% 22 750441 2274 37%
c i 36.87 1471 79 1  38  796  508 29% 17 750441 2273 37%
c i 36.87 1471 79 1  38  797  508 29% 17 750441 2272 37%
c i 36.96 1471 77 1  38  813  523 29% 17 750441 2271 37%
c i 37.01 1471 76 1  38  832  535 29% 17 750441 2270 37%
c } 37.13 1471 65 1  38 1000  661 29% 16 750441 2270 37%
c [ 37.13 1471  0 1  38 1000  661  0% 0 750441 2270 37%
c 
c  seconds    reductions  redundant  irredundant
c          MB     restarts       trail      variables
c            level   conflicts       glue        remaining
c 
c i 37.14 1471  3 1  38 1001  661 32% 0 750441 2269 37%
c O 37.16 1471  5 1  38 1002  662 23% 1 750441 2269 37%
c i 37.24 1471  4 1  38 1003  662 24% 1 750441 2262 37%
c i 37.95 1472 48 1  38 1085  733 30% 37 750441 2261 37%
c i 38.23 1472 40 1  38 1281  898 30% 31 750441 2260 37%
c - 39.84 1707 38 2  38 1428  898 30% 30 750269 2260 37%
c i 40.34 1707 38 2  38 1627 1027 30% 31 750269 2259 37%
c i 40.60 1707 37 2  38 1887 1231 30% 30 750269 2258 37%
c ] 41.59 1707 33 2  39 3002 1933 30% 28 750269 2258 37%
c { 41.59 1707 65 2  39 3002 1933 29% 16 750269 2258 37%
c F 42.70 1706 65 2  39 3003 1934 30% 16 750263 2258 37%
c - 44.39 1706 62 3  48 3116 1619 46% 16 750263 2258 37%
c i 47.82 1706 65 3 106 3367 1816 45% 22 750263 2245 36%
c i 50.88 1706 69 3 141 3509 1948 45% 24 750263 2239 36%
c i 56.14 1706 72 3 213 3806 2219 45% 27 750263 2238 36%
c d 64.15 1706 58 3 251 5002 3269 47% 25 621251 2235 36%
c 3 64.62 1706 58 3 251 5002 3832 47% 25 621249 2234 36%
c p 75.14 1706 58 3 251 5002 5830 47% 25 621249 2200 36%
c d 75.98 1706 58 3 251 5002 5709 47% 25 621156 2199 36%
c - 84.14 1647 60 4 320 5368 2753 46% 27 621156 2199 36%
c 
c  seconds    reductions  redundant   irredundant
c          MB     restarts       trail       variables
c            level   conflicts       glue         remaining
c 
c # 85.21 1647 55 4 322 6004 3255 46% 26 621156 2199 36%
c } 87.69 1647 49 4 332 7002 4047 47% 24 621156 2199 36%
c [ 87.69 1647 33 4 332 7002 4047 82% 28 621156 2199 36%
c - 88.78 1647 28 5 333 8058 3393 71% 23 621156 2199 36%
c I 90.41 1647 25 5 334 10005 4748 64% 21 621156 2199 36%
c - 94.33 1647 36 6 336 11286 4230 60% 28 621156 2199 36%
c ] 101.92 1647 47 6 337 15004 7352 55% 35 621156 2199 36%
c { 101.92 1647 49 6 337 15004 7352 47% 24 621156 2199 36%
c p 106.22 1647 49 6 337 15004 10010 47% 24 621156 2199 36%
c B 106.82 1647 49 6 337 15007 10013 47% 24 621156 2199 36%
c - 107.97 1397 50 7 342 15054 5246 47% 24 621156 2199 36%
c s 124.32 1397 41 7 522 18875 7912 48% 23 618398 2199 36%
c v 135.85 1397 41 7 522 18875 7912 48% 23 618391 2199 36%
c w 136.10 1397 41 7 522 18875 7902 48% 23 618391 2199 36%
c t 136.12 1397 41 7 522 18875 7899 48% 23 618384 2199 36%
c e 138.73 1400 41 7 522 18875 7348 48% 23 616533 1073 17%
c s 138.91 1400 41 7 522 18875 7348 48% 23 612699 1073 17%
c - 151.97 1400 43 8 619 19357 5280 59% 23 612699 1073 17%
c W 166.57 1400 44 8 805 21009 6659 61% 24 612699 1073 17%
c - 186.01 1650 44 9 1037 24183 6668 62% 25 612699 1073 17%
c 
c  seconds     reductions    redundant   irredundant
c           MB     restarts         trail       variables
c             level     conflicts       glue         remaining
c 
c F 213.13 1650 43 9 1287 28010 9771 62% 25 612699 1073 17%
c - 224.10 1400 43 10 1421 29546 7891 63% 25 612699 1073 17%
c 3 225.64 1400 43 10 1433 30004 8714 63% 25 612699 1073 17%
c p 229.17 1400 43 10 1433 30004 10328 63% 25 612699 1073 17%
c } 233.38 1400 42 10 1516 31004 11121 63% 25 612699 1073 17%
c [ 233.38 1400 47 10 1516 31004 11121 117% 35 612699 1073 17%
c - 235.39 1651 40 11 1518 35447 8486 100% 31 612699 1073 17%
c B 235.96 1651 40 11 1519 36011 8862 98% 31 612699 1073 17%
c - 243.97 1400 41 12 1523 41885 8893 88% 32 612699 1073 17%
c W 250.49 1400 40 12 1523 45014 11016 85% 32 612699 1073 17%
c - 253.39 1651 38 13 1524 48856 9196 82% 31 612699 1073 17%
c p 259.02 1651 38 13 1524 50004 12196 81% 31 612699 1072 17%
c O 263.18 1651 37 13 1525 55018 14984 78% 30 612699 1072 17%
c s 263.87 1651 36 13 1526 55505 15302 78% 30 609304 1072 17%
c v 274.55 1651 36 13 1526 55505 15302 78% 30 609296 1072 17%
c w 275.01 1651 36 13 1526 55505 15291 78% 30 609296 1072 17%
c t 275.03 1651 36 13 1526 55505 15290 78% 30 609296 1072 17%
c s 278.04 1653 36 13 1526 55505 15290 78% 30 605840 1072 17%
c - 282.71 1402 36 14 1526 56365 9514 77% 30 605840 1072 17%
c ] 287.41 1402 34 14 1531 63004 14123 75% 29 605840 1072 17%
c 
c  seconds     reductions      redundant   irredundant
c           MB      restarts          trail       variables
c             level      conflicts        glue         remaining
c 
c { 287.41 1402 42 14 1531 63004 14123 63% 25 605840 1072 17%
c - 292.47 1651 42 15 1624 64386 10574 63% 25 605840 1072 17%
c B 295.34 1651 41 15 1646 66019 11874 63% 25 605840 1072 17%
c - 317.22 1402 38 16 1896 72941 11839 63% 24 605840 1072 17%
c p 321.60 1402 37 16 1896 75005 15832 63% 23 605840 1072 17%
c W 332.00 1402 36 16 2057 78024 17931 63% 23 605840 1072 17%
c - 337.17 1651 35 17 2084 82031 13575 63% 23 605840 1072 17%
c # 358.50 1651 33 17 2281 91028 20093 64% 22 605840 1072 17%
c - 360.16 1402 33 18 2281 91655 14171 64% 22 605840 1072 17%
c - 368.08 1651 31 19 2340 101815 13798 64% 21 605840 1072 17%
c p 373.99 1651 30 19 2363 105007 18481 64% 21 605840 1072 17%
c B 374.58 1651 30 19 2363 105030 18500 64% 21 605840 1072 17%
c s 381.09 1651 29 19 2445 110363 21973 64% 21 603065 1072 17%
c v 398.20 1651 29 19 2445 110363 21973 64% 21 603057 1072 17%
c w 399.30 1651 29 19 2445 110363 21968 64% 21 603057 1072 17%
c t 399.31 1651 29 19 2445 110363 21967 64% 21 603057 1072 17%
c s 402.39 1651 29 19 2445 110363 21964 64% 21 600144 1072 17%
c - 407.76 1402 28 20 2450 112513 14754 64% 20 600144 1072 17%
c W 457.21 1402 30 20 3279 120031 20339 64% 21 600144 1072 17%
c - 466.80 1650 30 21 3458 123717 16656 64% 21 600144 1072 17%
c 
c  seconds     reductions       redundant   irredundant
c           MB      restarts           trail       variables
c             level      conflicts         glue         remaining
c 
c } 471.25 1650 29 21 3546 127004 19009 64% 21 600144 1072 17%
c [ 471.25 1650 34 21 3546 127004 19009 75% 29 600144 1072 17%
c - 477.16 1402 32 22 3550 135456 16713 73% 27 600144 1072 17%
c B 477.64 1402 32 22 3550 136032 17166 73% 27 600144 1072 17%
c p 484.63 1402 33 22 3553 140007 23346 72% 28 600144 1072 17%
c - 490.79 1653 32 23 3554 147725 18597 72% 28 600144 1072 17%
c W 496.58 1653 32 23 3555 153033 22531 71% 28 600144 1072 17%
c - 504.31 1402 32 24 3555 160528 18478 71% 28 600144 1072 17%
c I 517.32 1402 33 24 3558 171034 25726 70% 28 600144 1072 17%
c - 527.85 1652 33 25 3560 173866 18936 69% 28 600144 1072 17%
c p 538.74 1652 33 25 3562 180008 26380 69% 29 600144 1072 17%
c - 549.87 1402 34 26 3568 187736 19551 68% 29 600144 1072 17%
c B 552.82 1402 35 26 3569 190035 21076 68% 30 600144 1072 17%
c ] 562.31 1402 34 26 3570 197475 26914 68% 29 600144 1072 17%
c 1 562.31 1402 34 26 3570 197475 26914 68% 29 600144 1072 17%
c 
c --- [ writing output ] -----------------------------------------------------
c 
c writing simplified CNF to DIMACS file 'simp/33.cubes3827.adj.simp1'
c * 562.31 1402 34 26 3570 197475 26914 68% 29 600144 1072 17%
c opening file to write 'simp/33.cubes3827.adj.simp1'
c writing 'p cnf 6160 600144' header
c closing file 'simp/33.cubes3827.adj.simp1'
c after writing 285184622 bytes 272.0 MB
c wrote 600144 clauses in 2.34 seconds process time
c 
c --- [ writing extension ] --------------------------------------------------
c 
c writing extension stack to 'simp/33.cubes3827.adj.ext1'
c opening file to write 'simp/33.cubes3827.adj.ext1'
c closing file 'simp/33.cubes3827.adj.ext1'
c after writing 79015 bytes 0.1 MB
c wrote 3543 witnesses in 0.00 seconds process time
c 
c --- [ result ] -------------------------------------------------------------
c 
s SATISFIABLE
c 
c --- [ run-time profiling ] -------------------------------------------------
c 
c process time taken by individual solving procedures
c (percentage relative to process time for solving)
c 
c       443.53   81.82% search
c       301.56   55.63% unstable
c       131.64   24.28% stable
c        98.53   18.18% simplify
c        40.93    7.55% vivify
c        36.56    6.74% probe
c        20.25    3.74% parse
c        15.55    2.87% elim
c         9.05    1.67% walk
c         1.57    0.29% subsume
c         1.29    0.24% lucky
c         0.72    0.13% ternary
c   =================================
c       542.06   96.00% solve
c 
c last line shows process time for solving
c (percentage relative to total process time)
c 
c --- [ statistics ] ---------------------------------------------------------
c 
c chronological:             35022        17.73 %  of conflicts
c conflicts:                197475       364.31    per second
c decisions:                437240       806.63    per second
c eliminated:                 1126        18.28 %  of all variables
c fixed:                       813        13.20 %  of all variables
c learned:                  193168        97.82 %  per conflict
c learned_lits:           37144216       100.00 %  learned literals
c minimized:                     0         0.00 %  learned literals
c shrunken:               21841626        58.80 %  learned literals
c minishrunken:            3097316         8.34 %  learned literals
c propagations:           16536307         0.03 M  per second
c reduced:                  113098        57.27 %  per conflict
c rephased:                     19     10393.42    interval
c restarts:                   3570        55.32    interval
c stabilizing:                   4        56.96 %  of conflicts
c substituted:                   5         0.08 %  of all variables
c subsumed:                  72055         1.88 %  of all clauses
c strengthened:              11077         0.29 %  of all clauses
c ternary:                    4994         0.62 %  of resolved
c vivified:                     64         0.00 %  of all clauses
c walked:                        5     39495.00    interval
c weakened:                   2730         3.14    average size
c 
c seconds are measured in process time for solving
c 
c --- [ resources ] ----------------------------------------------------------
c 
c total process time since initialization:       564.65    seconds
c total real time since initialization:          566.23    seconds
c maximum resident set size of process:         2018.22    MB
c 
c --- [ shutting down ] ------------------------------------------------------
c 
c exit 10
WARNING! DIMACS header mismatch: wrong number of variables.
============================[ Problem Statistics ]=============================
|                                                                             |
|  Number of variables:          4043                                         |
|  Number of clauses:          600144                                         |
|  Parse time:                   3.94 s                                       |
|  Simplification time:          0.10 s                                       |
|                                                                             |
============================[ Search Statistics ]====================================================
| Conflicts |          ORIGINAL         |          LEARNT          | Num Sols |      SUBGRAPHS      |
|           |    Vars  Clauses Literals |    Limit  Clauses Lit/Cl |          | Canonical Noncanon. |
=====================================================================================================
|       100 |    3952   600144 61710239 |     2000      100    141 |        0 |        14         0 |
|       250 |    3952   600144 61710239 |     2000      250    116 |        0 |        22         0 |
|       480 |    3952   600149 61710347 |     2000      480    102 |        0 |        29         5 |
|       833 |    3952   600165 61710645 |     2000      833     97 |        0 |        48        21 |
|      1769 |    3952   600595 61718874 |     2000     1769     79 |        0 |       115       451 |
|      4311 |    3952   602378 61763340 |     3599     3310     33 |        0 |       507      2234 |
|      5495 |    3952   602423 61764158 |     5001     2696     47 |        0 |       536      2279 |
|      7256 |    3952   602476 61765230 |     5001     4457     67 |        0 |       572      2332 |
|     10798 |    3952   603456 61780924 |     6301     5499     49 |        0 |       884      3312 |
|     14976 |    3952   603790 61787922 |     7551     6527     64 |        0 |      1057      3646 |
|     20774 |    3952   603822 61788778 |     8780     8554     65 |        0 |      1070      3678 |
|     29975 |    3952   604374 61801626 |    11196     8371     55 |        0 |      1234      4230 |
|     43074 |    3952   604499 61805115 |    13606     9680     44 |        0 |      1323      4355 |
|     62975 |    3952   604939 61817095 |    16002    15377     65 |        0 |      1504      4795 |
|     93437 |    3952   606209 61842886 |    20812    10249     17 |        0 |      1804      6065 |
|    138637 |    3952   607620 61869049 |    24408    22445     66 |        0 |      2156      7476 |
|    204777 |    3952   608076 61879669 |    30411    21588     53 |        0 |      2497      7932 |
|    303417 |    3952   608190 61883143 |    37609    20026     38 |        0 |      2611      8046 |
|    452893 |    3952   609877 61923191 |    46012    25305     44 |        0 |      2884      9733 |
|    676930 |    3952   612231 61978758 |    55613    48543     64 |        0 |      3260     12087 |
|   1013162 |    3952   615938 62060945 |    68819    45981     57 |        0 |      4459     15794 |
|   1516729 |    3952   620717 62165479 |    84435    55564     53 |        0 |      5464     20573 |
|   2274525 |    3952   630331 62345402 |   103626    66151     48 |        0 |      6685     30187 |
|   3410231 |    3952   643763 62638945 |   126418   115049     71 |        3 |     10481     43616 |
|   5107649 |    3952   657770 62923735 |   155224   130073     58 |        3 |     12742     57623 |
|   7679394 |    3952   704399 64094623 |   191223   112817     44 |        3 |     22975    104252 |
|  11580575 |    3952   817905 66880335 |   234428   194403     65 |        8 |     43166    217753 |
|  17315551 |    3952   871369 68047138 |   287227   204978     51 |        8 |     52668    271217 |
|  25894478 |    3952   928027 69449193 |   350836   346314     72 |        8 |     66531    327875 |
|  38749312 |    3952   999458 71346524 |   430037   337749     57 |       10 |     89893    399304 |
|  57967569 |    3952  1042610 72591411 |   526031   460000     66 |       10 |    110550    442456 |
|  86889257 |    3952  1201640 76707336 |   644833   434090     46 |       13 |    135745    601483 |
| 130383703 |    3945  1420786 81834585 |   790014   562117     58 |       20 |    177826    951934 |
=====================================================================================================
Number of solutions   : 26
Canonical subgraphs   : 259573         (7 /sec)
          order  3    : 1              (166667 /sec)
          order  4    : 1              (500000 /sec)
          order  5    : 1              (250000 /sec)
          order  6    : 1              (55556 /sec)
          order  7    : 1              (8929 /sec)
          order  8    : 1              (1004 /sec)
          order  9    : 2              (150 /sec)
          order 10    : 7              (37 /sec)
          order 11    : 36             (12 /sec)
          order 12    : 300            (5 /sec)
          order 13    : 3824           (4 /sec)
          order 14    : 25048          (5 /sec)
          order 15    : 132611         (8 /sec)
          order 16    : 88552          (8 /sec)
          order 17    : 7069           (6 /sec)
          order 18    : 1315           (5 /sec)
          order 19    : 478            (4 /sec)
          order 20    : 151            (5 /sec)
          order 21    : 148            (5 /sec)
          order 22    : 26             (0 /sec)
Noncanonical subgraphs: 1524031        (151 /sec)
          order  3    : 0              (-nan /sec)
          order  4    : 0              (-nan /sec)
          order  5    : 0              (-nan /sec)
          order  6    : 0              (-nan /sec)
          order  7    : 0              (-nan /sec)
          order  8    : 0              (-nan /sec)
          order  9    : 0              (-nan /sec)
          order 10    : 0              (-nan /sec)
          order 11    : 0              (-nan /sec)
          order 12    : 0              (-nan /sec)
          order 13    : 8668           (5747 /sec)
          order 14    : 145258         (963 /sec)
          order 15    : 933426         (375 /sec)
          order 16    : 78210          (326 /sec)
          order 17    : 357867         (50 /sec)
          order 18    : 409            (21 /sec)
          order 19    : 58             (16 /sec)
          order 20    : 6              (86 /sec)
          order 21    : 1              (68 /sec)
Canonicity checking   : 37117.3 s
Noncanonicity checking: 10096.5 s
Total canonicity time : 47213.8 s
database reductions   : 797
restarts              : 235515
conflicts             : 192201001      (1045 /sec)
decisions             : 239467425      (0.00 % random) (1302 /sec)
propagations          : 11934450562    (64904 /sec)
conflict literals     : 20759583655    (56.83 % deleted)
actual reward         : 0.197997
Memory used           : 1746.00 MB
CPU time              : 183880 s

UNSATISFIABLE
